
Gurobi 13.0.1 (linux64) logging started Thu Mar 26 10:06:33 2026

Set parameter LogFile to value "logs_sparse/75B_3F_robust_gamma_0d2_theta_0d05199999999999999_2026-03-26_10h06m18s.log"
Set parameter MIPGap to value 0.005
Set parameter OptimalityTol to value 0.005
Gurobi Optimizer version 13.0.1 build v13.0.1rc0 (linux64 - "Linux Mint 22")

CPU model: 12th Gen Intel(R) Core(TM) i7-12700, instruction set [SSE2|AVX|AVX2]
Thread count: 20 physical cores, 20 logical processors, using up to 20 threads

Non-default parameters:
TimeLimit  3600
SoftMemLimit  12
MIPGap  0.005
OptimalityTol  0.005

Optimize a model with 45596 rows, 867096 columns and 2644377 nonzeros (Max)
Model fingerprint: 0x4d047533
Model has 832586 linear objective coefficients
Variable types: 12096 continuous, 855000 integer (855000 binary)
Coefficient statistics:
  Matrix range     [3e-05, 1e+05]
  Objective range  [1e+00, 3e+03]
  Bounds range     [1e+00, 1e+05]
  RHS range        [1e-02, 1e+05]

Presolve removed 23361 rows and 626499 columns
Presolve time: 1.54s
Presolved: 22235 rows, 240597 columns, 754072 nonzeros
Variable types: 5898 continuous, 234699 integer (234699 binary)
Found heuristic solution: objective -4.10862e+08
Deterministic concurrent LP optimizer: primal simplex, dual simplex, and barrier
Showing barrier log only...

Root barrier log...

Ordering time: 0.47s

Barrier statistics:
 AA' NZ     : 3.860e+05
 Factor NZ  : 3.362e+06 (roughly 130 MB of memory)
 Factor Ops : 9.985e+08 (less than 1 second per iteration)
 Threads    : 18

                  Objective                Residual
Iter       Primal          Dual         Primal    Dual     Compl     Time
   0  -8.70781412e+11  1.19655639e+09  2.53e+07 1.02e+03  1.06e+07     3s
   1  -8.61508028e+10  2.28349537e+09  2.50e+06 1.22e+03  1.07e+06     3s
   2  -1.00329356e+09  1.79087682e+09  3.14e+04 2.53e+02  1.74e+04     3s
   3   1.72167244e+08  1.02640006e+09  2.96e+03 2.71e+01  2.69e+03     3s
   4   2.69501899e+08  5.90361325e+08  7.33e+02 7.23e+00  8.36e+02     3s
   5   2.89503711e+08  4.40157818e+08  2.83e+02 3.14e+00  3.70e+02     3s
   6   2.98276306e+08  3.84317784e+08  8.34e+01 1.81e+00  1.94e+02     3s
   7   3.00287724e+08  3.43061740e+08  4.31e+01 8.82e-01  9.60e+01     3s
   8   3.00444762e+08  3.30048062e+08  4.03e+01 5.87e-01  6.82e+01     3s
   9   3.01219588e+08  3.17087250e+08  2.78e+01 2.88e-01  3.75e+01     3s
  10   3.01276505e+08  3.10601130e+08  2.69e+01 1.46e-01  2.35e+01     3s
  11   3.02435029e+08  3.06085607e+08  7.96e+00 5.17e-02  8.58e+00     3s
  12   3.02722376e+08  3.04758040e+08  2.73e+00 2.78e-02  4.46e+00     3s
  13   3.02878893e+08  3.03722476e+08  9.94e-01 9.93e-03  1.78e+00     3s
  14   3.02966795e+08  3.03406242e+08  3.16e-01 5.18e-03  9.05e-01     3s
  15   3.03000976e+08  3.03284415e+08  1.55e-01 3.26e-03  5.82e-01     4s
  16   3.03034022e+08  3.03198002e+08  5.68e-02 1.98e-03  3.36e-01     4s
  17   3.03054075e+08  3.03138669e+08  1.67e-02 1.08e-03  1.73e-01     4s
  18   3.03059335e+08  3.03106501e+08  8.07e-03 6.00e-04  9.67e-02     4s
  19   3.03064200e+08  3.03091497e+08  1.50e-03 3.70e-04  5.60e-02     4s
  20   3.03064698e+08  3.03079159e+08  8.70e-04 1.89e-04  2.96e-02     4s
  21   3.03065134e+08  3.03075149e+08  4.19e-04 1.30e-04  2.05e-02     4s
  22   3.03065401e+08  3.03071314e+08  2.50e-04 7.56e-05  1.21e-02     4s
  23   3.03065547e+08  3.03069801e+08  1.42e-04 5.34e-05  8.72e-03     4s
  24   3.03065657e+08  3.03068474e+08  9.24e-05 3.49e-05  5.77e-03     4s
  25   3.03065807e+08  3.03067508e+08  2.56e-05 2.16e-05  3.49e-03     4s
  26   3.03065836e+08  3.03066957e+08  1.27e-05 1.38e-05  2.30e-03     4s
  27   3.03065843e+08  3.03066747e+08  9.92e-06 1.11e-05  1.85e-03     4s
  28   3.03065858e+08  3.03066406e+08  6.56e-06 6.56e-06  1.12e-03     4s
  29   3.03065866e+08  3.03066284e+08  3.15e-06 4.96e-06  8.54e-04     4s
  30   3.03065871e+08  3.03066101e+08  2.47e-06 2.60e-06  4.70e-04     4s
  31   3.03065876e+08  3.03066007e+08  1.56e-06 1.38e-06  2.68e-04     4s
  32   3.03065881e+08  3.03065943e+08  9.28e-07 6.26e-07  1.28e-04     4s
  33   3.03065886e+08  3.03065918e+08  2.89e-07 3.21e-07  6.55e-05     4s
  34   3.03065888e+08  3.03065895e+08  6.77e-08 5.88e-08  1.33e-05     4s
  35   3.03065889e+08  3.03065892e+08  3.40e-08 2.81e-08  6.67e-06     5s
  36   3.03065889e+08  3.03065890e+08  3.38e-08 9.55e-09  2.44e-06     5s
  37   3.03065889e+08  3.03065890e+08  1.54e-08 4.24e-09  1.01e-06     5s
  38   3.03065889e+08  3.03065889e+08  4.89e-09 8.82e-10  2.51e-07     5s
  39   3.03065889e+08  3.03065889e+08  3.61e-09 3.06e-10  1.01e-07     5s
  40   3.03065889e+08  3.03065889e+08  3.95e-09 1.13e-10  4.50e-10     5s

Barrier solved model in 40 iterations and 4.75 seconds (6.75 work units)
Optimal objective 3.03065889e+08


Root crossover log...

       0 PPushes remaining with PInf 0.0000000e+00                 5s

  Push phase complete: Pinf 0.0000000e+00, Dinf 5.8614099e+03      5s


Root simplex log...

Iteration    Objective       Primal Inf.    Dual Inf.      Time
    9611    3.0306589e+08   0.000000e+00   5.861396e+03      5s
    9847    3.0306589e+08   0.000000e+00   0.000000e+00      5s
Crossover time: 0.46 seconds (0.43 work units)
Concurrent spin time: 0.86s (can be avoided by choosing Method=3)

Solved with barrier

Root relaxation: objective 3.030659e+08, 9847 iterations, 4.13 seconds (3.94 work units)

    Nodes    |    Current Node    |     Objective Bounds      |     Work
 Expl Unexpl |  Obj  Depth IntInf | Incumbent    BestBd   Gap | It/Node Time

     0     0 3.0307e+08    0 6926 -4.109e+08 3.0307e+08   174%     -    7s
H    0     0                    4.639654e+07 3.0307e+08   553%     -    7s
H    0     0                    1.320712e+08 3.0307e+08   129%     -    7s
H    0     0                    1.757404e+08 3.0307e+08  72.5%     -    8s
H    0     0                    1.908223e+08 3.0307e+08  58.8%     -    8s
H    0     0                    1.955203e+08 3.0307e+08  55.0%     -   10s
H    0     0                    1.972321e+08 3.0307e+08  53.7%     -   10s
H    0     0                    1.979093e+08 3.0307e+08  53.1%     -   11s
H    0     0                    1.982765e+08 3.0307e+08  52.9%     -   11s
H    0     0                    1.983066e+08 3.0307e+08  52.8%     -   12s
H    0     0                    2.012850e+08 3.0307e+08  50.6%     -   14s
H    0     0                    2.053176e+08 3.0307e+08  47.6%     -   14s
H    0     0                    2.534333e+08 3.0307e+08  19.6%     -   16s
H    0     0                    2.544628e+08 3.0307e+08  19.1%     -   19s
     0     0 3.0307e+08    0 5901 2.5446e+08 3.0307e+08  19.1%     -  343s
H    0     0                    2.547468e+08 3.0307e+08  19.0%     -  359s
H    0     0                    2.547500e+08 3.0307e+08  19.0%     -  377s
     0     0 3.0306e+08    0 6584 2.5475e+08 3.0306e+08  19.0%     - 1081s
H    0     0                    2.573065e+08 3.0306e+08  17.8%     - 1084s
H    0     0                    2.584005e+08 3.0306e+08  17.3%     - 1091s
H    0     0                    2.662413e+08 3.0306e+08  13.8%     - 1120s
H    0     0                    2.702440e+08 3.0306e+08  12.1%     - 1199s
H    0     0                    2.711409e+08 3.0306e+08  11.8%     - 1266s
H    0     0                    2.724343e+08 3.0306e+08  11.2%     - 1282s
H    0     0                    2.724426e+08 3.0306e+08  11.2%     - 1335s
H    0     0                    2.724954e+08 3.0306e+08  11.2%     - 1335s
H    0     0                    2.729968e+08 3.0306e+08  11.0%     - 1335s
H    0     0                    2.730539e+08 3.0306e+08  11.0%     - 1404s
H    0     0                    2.730906e+08 3.0306e+08  11.0%     - 1404s
H    0     0                    2.731119e+08 3.0306e+08  11.0%     - 1404s
H    0     0                    2.733087e+08 3.0306e+08  10.9%     - 1425s
     0     0 3.0306e+08    0 6423 2.7331e+08 3.0306e+08  10.9%     - 1489s
     0     0 3.0306e+08    0 6733 2.7331e+08 3.0306e+08  10.9%     - 1824s
     0     0 3.0306e+08    0 7106 2.7331e+08 3.0306e+08  10.9%     - 1885s
     0     0 3.0306e+08    0 7244 2.7331e+08 3.0306e+08  10.9%     - 2184s
     0     0 3.0306e+08    0 7244 2.7331e+08 3.0306e+08  10.9%     - 2185s
     0     0 3.0306e+08    0 7190 2.7331e+08 3.0306e+08  10.9%     - 2186s
     0     2 3.0306e+08    0 7190 2.7331e+08 3.0306e+08  10.9%     - 2591s
     1     3 3.0306e+08    1 5038 2.7331e+08 3.0306e+08  10.9% 59837 2647s
     2     4 3.0306e+08    1 7267 2.7331e+08 3.0306e+08  10.9% 114956 2793s
     3     5 3.0306e+08    2 5306 2.7331e+08 3.0306e+08  10.9% 129488 2926s
     4     6 3.0306e+08    2 5204 2.7331e+08 3.0306e+08  10.9% 151414 3131s
     5     9 3.0306e+08    3 5120 2.7331e+08 3.0306e+08  10.9% 128214 3344s
     8    15 3.0306e+08    4 5111 2.7331e+08 3.0306e+08  10.9% 110542 3600s

Cutting planes:
  MIR: 11
  Flow cover: 73
  RLT: 3101
  Relax-and-lift: 97

Explored 14 nodes (2208209 simplex iterations) in 3600.09 seconds (6574.18 work units)
Thread count was 20 (of 20 available processors)

Solution count 10: 2.73309e+08 2.73112e+08 2.73091e+08 ... 2.70244e+08

Time limit reached
Best objective 2.733086976756e+08, best bound 3.030640934596e+08, gap 10.8871%
